DIMENSION: 24
EDGE_WEIGHT_TYPE: EXPLICIT
EDGE_WEIGHT_FORMAT: FULL_MATRIX
EDGE_WEIGHT_SECTION:
32767 32767 100 32767 43 32767 32767 35 93 81 29 32767 70 32767 32767 93 22 32767 32767 32767 13 32767 28 32767 
32767 32767 41 83 32767 32767 69 32767 1 32767 51 29 62 32767 32767 41 32767 32767 3 32767 32767 66 32767 58 
100 41 32767 32767 68 3 32767 82 32767 32767 91 32767 32767 65 91 32767 32767 32767 32767 32767 32767 91 32767 32767 
32767 83 32767 32767 32767 32767 14 32767 38 32767 32767 33 32767 32767 20 32767 32767 32767 32767 55 32767 32767 68 32767 
43 32767 68 32767 32767 32767 32767 32767 97 32767 32767 11 32767 48 65 23 32767 95 32767 32767 32767 4 32767 32767 
32767 32767 3 32767 32767 32767 71 21 32767 32767 77 32767 32767 32767 32767 32767 23 36 11 35 32767 81 32767 15 
32767 69 32767 14 32767 71 32767 37 32767 32767 52 32767 32767 32767 32767 32767 32767 3 32767 32767 92 32767 79 32767 
35 32767 82 32767 32767 21 37 32767 32767 98 76 32767 32767 32767 32767 32767 32767 57 32767 32767 32767 32767 32767 63 
93 1 32767 38 97 32767 32767 32767 32767 34 70 32767 14 11 32767 42 70 64 23 32767 32767 32767 19 64 
81 32767 32767 32767 32767 32767 32767 98 34 32767 32767 32767 32767 23 32767 32767 32767 32767 67 32767 32767 32767 32767 32767 
29 51 91 32767 32767 77 52 76 70 32767 32767 32767 32767 32767 32767 32767 32767 32767 32767 63 21 32767 85 32767 
32767 29 32767 33 11 32767 32767 32767 32767 32767 32767 32767 53 32767 32767 32767 83 32767 32767 32767 32767 32767 32767 54 
70 62 32767 32767 32767 32767 32767 32767 14 32767 32767 53 32767 32767 32767 98 33 32767 32767 32767 92 13 37 32767 
32767 32767 65 32767 48 32767 32767 32767 11 23 32767 32767 32767 32767 41 32767 32767 91 32767 32767 33 33 32767 32767 
32767 32767 91 20 65 32767 32767 32767 32767 32767 32767 32767 32767 41 32767 41 99 66 8 15 32767 32767 32767 32767 
93 41 32767 32767 23 32767 32767 32767 42 32767 32767 32767 98 32767 41 32767 32767 46 97 32767 32767 34 32767 32767 
22 32767 32767 32767 32767 23 32767 32767 70 32767 32767 83 33 32767 99 32767 32767 32767 32767 17 32767 32767 32767 43 
32767 32767 32767 32767 95 36 3 57 64 32767 32767 32767 32767 91 66 46 32767 32767 32767 60 32767 32767 32767 37 
32767 3 32767 32767 32767 11 32767 32767 23 67 32767 32767 32767 32767 8 97 32767 32767 32767 32767 32767 70 32767 32767 
32767 32767 32767 55 32767 35 32767 32767 32767 32767 63 32767 32767 32767 15 32767 17 60 32767 32767 32767 32767 32767 95 
13 32767 32767 32767 32767 32767 92 32767 32767 32767 21 32767 92 33 32767 32767 32767 32767 32767 32767 32767 32767 75 32767 
32767 66 91 32767 4 81 32767 32767 32767 32767 32767 32767 13 33 32767 34 32767 32767 70 32767 32767 32767 36 32767 
28 32767 32767 68 32767 32767 79 32767 19 32767 85 32767 37 32767 32767 32767 32767 32767 32767 32767 75 36 32767 32767 
32767 58 32767 32767 32767 15 32767 63 64 32767 32767 54 32767 32767 32767 32767 43 37 32767 95 32767 32767 32767 32767 
EOF